21 = ndim
48 = nblocks
17 1 1 1 1 1 1 1 1 1 1 1 1 1 1 1 1 1 1 1 1 1 1 1 1 1 1 1 1 1 1 1 1 1 1 1 1 1 1 1 1 1 1 1 1 1 1 1 = blockstruct
1.0, 0.0, 0.0, 0.0, 0.0, 0.0, 0.0, 0.0, 0.0, 0.0, 0.0, 0.0, 0.0, 0.0, 0.0, 0.0, 0.0, 0.0, 0.0, 0.0, 0.0 = objcoeffs
0 1 1 1 3.38520830369e+260
0 1 1 2 2.28155081344e+130
0 1 1 3 -3.64117962855e+129
0 1 1 4 -9.25496867962e+127
0 1 1 5 -7.87048675063e+124
0 1 1 6 6.73403372421e+129
0 1 1 7 -3.99237152454e+128
0 1 1 8 7.41207203236e+129
0 1 1 9 3.91414390477e+128
0 1 1 10 -8.62149024914e+129
0 1 1 11 -7.05153456448e+131
0 1 1 12 -1.04997349665e+130
0 1 1 13 -1.50197686223e+129
0 1 1 14 -1.50197686223e+129
0 1 1 15 -6.68627522014e+131
0 1 1 16 2.05268649258e+130
0 1 1 17 7.80234543897e+129
0 1 2 2 -1.0
0 1 3 3 -1.0
0 1 4 4 -1.0
0 1 5 5 -1.0
0 1 6 6 -1.0
0 1 7 7 -1.0
0 1 8 8 -1.0
0 1 9 9 -1.0
0 1 10 10 -1.0
0 1 11 11 -1.0
0 1 12 12 -1.0
0 1 13 13 -1.0
0 1 14 14 -1.0
0 1 15 15 -1.0
0 1 16 16 -1.0
0 1 17 17 -1.0
0 2 1 1 1e-06
0 3 1 1 1e-06
0 4 1 1 1e-06
0 5 1 1 1e-06
0 6 1 1 1e-06
0 7 1 1 -15.138999
0 8 1 1 14.939001
0 9 1 1 1.383051
0 10 1 1 -1.396949
0 11 1 1 1.311411
0 12 1 1 -1.324589
0 13 1 1 0.816896
0 14 1 1 -0.825104
0 15 1 1 0.765156
0 16 1 1 -0.772844
0 17 1 1 0.683566
0 18 1 1 -0.690434
0 19 1 1 1e-06
0 20 1 1 1e-06
0 21 1 1 1e-06
0 22 1 1 1e-06
0 23 1 1 1e-06
0 24 1 1 1e-06
0 25 1 1 1e-06
0 26 1 1 1e-06
0 27 1 1 1e-06
0 28 1 1 1e-06
0 29 1 1 1e-06
0 30 1 1 1e-06
0 31 1 1 1e-06
0 32 1 1 1e-06
0 33 1 1 1e-06
0 34 1 1 1e-06
0 35 1 1 1e-06
0 36 1 1 1e-06
0 37 1 1 1e-06
0 38 1 1 1e-06
0 39 1 1 1e-06
0 40 1 1 1e-06
0 41 1 1 1e-06
0 42 1 1 1e-06
0 43 1 1 1e-06
0 44 1 1 1e-06
0 45 1 1 1e-06
0 46 1 1 1e-06
0 47 1 1 1e-06
0 48 1 1 1e-06
1 1 1 1 1.0
2 1 1 11 -5.07304644927e+131
2 2 1 1 1.0
2 7 1 1 -1.0
2 8 1 1 1.0
2 9 1 1 1.0
2 10 1 1 -1.0
2 19 1 1 0.0852150991559
2 20 1 1 0.0853551030159
2 21 1 1 0.0756699964404
2 22 1 1 0.05610819906
2 23 1 1 0.0848226025701
2 24 1 1 0.0850974991918
3 1 1 12 -5.07304644927e+131
3 19 1 1 1.0
3 20 1 1 -1.0
4 1 1 13 -5.07304644927e+131
4 21 1 1 1.0
4 22 1 1 -1.0
5 1 1 14 -5.07304644927e+131
5 23 1 1 1.0
5 24 1 1 -1.0
6 1 1 15 -5.07304644927e+131
6 3 1 1 1.0
6 7 1 1 -1.0
6 8 1 1 1.0
6 11 1 1 1.0
6 12 1 1 -1.0
6 25 1 1 0.0364000014961
6 26 1 1 0.0380599983037
6 27 1 1 0.11400000006
6 28 1 1 0.105999998748
6 29 1 1 0.0399499982595
6 30 1 1 0.0499899983406
7 1 1 2 -11.0599006672
7 1 1 3 1.62838899595
7 1 1 4 -0.00301557426996
7 1 1 5 -0.000733673988367
7 1 1 6 -7.89462681426
7 1 1 7 0.354221737013
7 1 1 8 -13.6948896201
7 25 1 1 1.0
7 26 1 1 -1.0
8 1 1 16 -5.07304644927e+131
8 27 1 1 1.0
8 28 1 1 -1.0
9 1 1 2 22.655665858
9 1 1 3 -1.81654146917
9 1 1 4 -0.00136712401629
9 1 1 5 -0.000337880644355
9 1 1 6 16.0694995461
9 1 1 7 0.222634880555
9 1 1 8 27.7655683023
9 1 1 9 -1.99099120431
9 29 1 1 1.0
9 30 1 1 -1.0
10 1 1 2 3.51162801241
10 1 1 3 -0.281563912039
10 1 1 4 -0.000211904210723
10 1 1 5 -5.23714969581e-05
10 1 1 6 2.49077229092
10 1 1 7 0.0345084045641
10 1 1 8 4.30366284715
10 1 1 9 -0.30860361948
10 4 1 1 1.0
10 7 1 1 -1.0
10 8 1 1 1.0
10 13 1 1 1.0
10 14 1 1 -1.0
10 31 1 1 0.0320999994874
10 32 1 1 0.0322099998593
10 33 1 1 0.107539996505
10 34 1 1 0.0844900012016
10 35 1 1 0.0465499982238
10 36 1 1 0.0365599989891
11 1 1 2 -6.68110936786
11 1 1 3 -0.215486672954
11 1 1 4 -0.0025606377851
11 1 1 5 -0.000637349475765
11 1 1 6 -4.68831477834
11 1 1 7 -0.617345532394
11 31 1 1 1.0
11 32 1 1 -1.0
12 1 1 10 -5.07304644927e+131
12 33 1 1 1.0
12 34 1 1 -1.0
13 1 1 2 -49.9875577515
13 1 1 3 4.77947155386
13 1 1 4 -3.31353455745e-05
13 1 1 5 -3.92030524887e-05
13 1 1 6 -35.5077413759
13 35 1 1 1.0
13 36 1 1 -1.0
14 1 1 2 -3.23669232319
14 1 1 3 0.363664752648
14 1 1 4 -0.000216377487035
14 1 1 5 -5.7663910267e-05
14 1 1 6 -2.30277282273
14 1 1 7 0.0345084053104
14 1 1 8 4.30366294023
14 1 1 9 -0.308603626154
14 5 1 1 1.0
14 7 1 1 -1.0
14 8 1 1 1.0
14 15 1 1 1.0
14 16 1 1 -1.0
14 37 1 1 0.0333399996161
14 38 1 1 0.0336100012064
14 39 1 1 0.0620100013912
14 40 1 1 0.0548200011253
14 41 1 1 0.0593600012362
14 42 1 1 0.039390001446
15 1 1 2 -71.3381972084
15 1 1 3 7.46278833173
15 37 1 1 1.0
15 38 1 1 -1.0
16 1 1 17 -5.07304644927e+131
16 39 1 1 1.0
16 40 1 1 -1.0
17 1 1 2 25.0865433903
17 41 1 1 1.0
17 42 1 1 -1.0
18 1 1 2 0.167234763883
18 1 1 3 0.34873917193
18 1 1 4 -0.000216377504866
18 1 1 5 -5.76639147083e-05
18 1 1 6 -2.302772653
18 1 1 7 0.0345084082081
18 1 1 8 4.30366330161
18 1 1 9 -0.308603652068
18 6 1 1 1.0
18 7 1 1 -1.0
18 8 1 1 1.0
18 17 1 1 1.0
18 18 1 1 -1.0
18 43 1 1 0.0266699995846
18 44 1 1 0.0265299994498
18 45 1 1 0.0290699992329
18 46 1 1 0.0116600003093
18 47 1 1 0.0481700003147
18 48 1 1 0.0482000000775
19 1 1 2 69.508019063
19 1 1 3 -7.29006551804
19 1 1 4 3.26078515187
19 1 1 5 -0.0677968570635
19 43 1 1 1.0
19 44 1 1 -1.0
20 1 1 2 16.0519620121
20 1 1 3 -1.59718167919
20 1 1 4 -14.1154562501
20 45 1 1 1.0
20 46 1 1 -1.0
21 1 1 2 25.0865433903
21 47 1 1 1.0
21 48 1 1 -1.0
